RAW/XQ/fspd-long/X-n134-k13.vrp_seed-3.out
8979	24.263	481.764
