RAW/XQ/fspd-long/X-n134-k13.vrp_seed-3.sol
Route #1: 95 52 101 131 114 11 122 100
Route #2: 83 17 82 133 12 85 29 92 31 125
Route #3: 87 26 35 32 62 10 103 86 33 124 80 76
Route #4: 109 78 74 50 38 3 72 130 19
Route #5: 118 91 14 51 16 47 9 34 58 60
Route #6: 105 41 2 39 73 18 59 25 116 129 40
Route #7: 127 69 1 49 71 61 57 119 115 128
Route #8: 89 113 108 90 66 93 94 102 88 37 24 54 110 123 56 132
Route #9: 106 45 21 46 99 104 111 36 43 120 79 117 64 48 112
Route #10: 6 53 42 65 28 75 20 67 126 55 22 27 4 70 84 107 8 44 98 23 30 68 81 15 63 7 121 77 5 97 13 96
Cost 8979.000000